%%% static parameters %%%
timespan = 1;
Fact = [2];
Distr1 = [15];
Distr2 = [20];
Clients_N = [100];
Demand_W = [15];
Lt0 = [4];
Lt1 = [4];
SS_ = [0.85];
DS_D = [15];
K = [200];
MA = [500];
%%% dynamic parameters %%%
lost_ratio_sales_ret_th = 0.08518456549895762;
lost_ratio_sales_ret_w = 72;
lost_ratio_sales_dis_th = 0.06563652442519188;
lost_ratio_sales_dis_w = 13;
lost_ratio_sales_fac_th = 0.008577693031618329;
lost_ratio_sales_fac_w = 6;
stock_customer_MA_mean_relative_th = 0.7777207293826077;
stock_customer_MA_mean_relative_w = 15;
stock_distributor_MA_mean_relative_th = 0.6615267872374079;
stock_distributor_MA_mean_relative_w = 31;
stock_retailer_MA_mean_relative_th = 0.17856761340561156;
stock_retailer_MA_mean_relative_w = 46;
stock_factory_MA_mean_relative_th = 0.5195388643384847;
stock_factory_MA_mean_relative_w = 12;
